NAME: PointSet_Angle_45_1
TYPE: TSP
COMMENT: Points chosen discrete uniformly at random out of ${0, \ldots, 500}^2$.
DIMENSION: 45
EDGE_WEIGHT_TYPE: EUC_2D
NODE_COORD_SECTION
1 7 406
2 105 487
3 113 52
4 490 57
5 498 388
6 50 439
7 80 421
8 131 253
9 129 309
10 208 28
11 341 260
12 339 411
13 194 425
14 29 226
15 283 100
16 299 36
17 6 150
18 269 366
19 202 259
20 169 199
21 393 219
22 384 473
23 386 262
24 473 14
25 317 180
26 290 157
27 187 128
28 68 381
29 299 344
30 106 328
31 444 405
32 365 450
33 302 380
34 61 3
35 385 230
36 450 24
37 195 333
38 497 81
39 341 215
40 342 158
41 142 378
42 315 329
43 5 129
44 456 305
45 473 61
EOF
